&control
    calculation     = 'bands'
    prefix          = 'struct'
    pseudo_dir      = '../../pseudos/'
    outdir          = './'
    tprnfor         = .true.
    tstress         = .true.
    verbosity       = 'high'
/
&system
    ibrav           = 2
    celldm(1)       = 7.67034
    nat             = 2
    ntyp            = 2
    ecutwfc         = 60.0
    nbnd            = 18 
    degauss = 1e-8
/
&electrons
    conv_thr        = 1.0d-12
    diago_full_acc  = .true.
/
ATOMIC_SPECIES
 Li 6.941  Li.upf
 F 18.9984 F.upf
ATOMIC_POSITIONS crystal
 Li 0.0000 0.0000 0.0000
 F  0.5000 0.5000 0.5000

K_POINTS crystal
8
0.0 0.0 0.0 1.0
0.0 0.0 0.5 1.0
0.0 0.5 0.0 1.0
0.0 0.5 0.5 1.0
0.5 0.0 0.0 1.0
0.5 0.0 0.5 1.0
0.5 0.5 0.0 1.0
0.5 0.5 0.5 1.0
